c array.sh: path:     /data/qbf/qbf20/PCNF/c1_BMC_p2_k2048.qdimacs
c array.sh: name:     c1_BMC_p2_k2048
c array.sh: task:     24
c array.sh: host:     c3n12
c array.sh: uname:    Linux c3n12 4.15.0-135-generic #139-Ubuntu SMP Mon Jan 18 17:38:24 UTC 2021 x86_64 x86_64 x86_64 GNU/Linux
c array.sh: start:    Thu Feb 18 09:53:05 CET 2021
c array.sh: noturbo:  1
c array.sh: governor: 32 performance
c array.sh: tmp:      1%
c array.sh: unzipped: /tmp/local-unzipped-18838260-24-c1_BMC_p2_k2048.cnf
*** qbfcert: using tmp directory:
*** qbfcert:   /tmp
trace-size: 183841704
solving-res 20
proof-size: 16484035
cert-size: 17038094
cert-header: aag 2202778 2199062 0 4 4
merged-header: p cnf 17137543 38195969
merged-size: 863334025
c ---- [ banner ] ------------------------------------------------------------
c
c KISSAT SAT Solver
c Copyright (c) 2019-2020 Armin Biere JKU Linz
c 
c Version 1.0.3 59813addcacc4d6fb880ebdd63685600475aa940
c gcc (Ubuntu 7.5.0-3ubuntu1~18.04) 7.5.0 -W -Wall -O3 -DNEMBEDDED -DNDEBUG -DNMETRICS -DNSTATISTICS
c Sun Feb 14 23:58:54 CET 2021 Linux cluster3 4.15.0-135-generic x86_64
c
c ---- [ parsing ] -----------------------------------------------------------
c
c opened and reading DIMACS file:
c 
c   /tmp/qbfcert_merged_cnf14109.cnf
c 
c parsed 'p cnf 17137543 38195969' header
c closing input after reading 863334025 bytes (823 MB)
c finished parsing after 11.34 seconds
c
c ---- [ solving ] -----------------------------------------------------------
c
c  seconds   reductions redundant irredundant
c           MB   restarts    trail          variables
c            level  conflicts   glue               remaining
c
c * 11.34 1843 0  0  0   1   0 0% 0 38195967 13571886 79%
c { 11.34 1843 0  0  0   1   0 0% 0 38195967 13571886 79%
c } 11.34 1843 0  0  0   1   0 0% 0 38195967 13571886 79%
c 0 11.34 1843 0  0  0   1   0 0% 0 38195967 13571886 79%
c
c ---- [ result ] ------------------------------------------------------------
c
s UNSATISFIABLE
c
c ---- [ profiling ] ---------------------------------------------------------
c
c          11.34  100.00 %  parse
c           0.00    0.00 %  search
c           0.00    0.00 %  focused
c           0.00    0.00 %  simplify
c =============================================
c          11.34  100.00 %  total
c
c ---- [ statistics ] --------------------------------------------------------
c
c conflicts:                                1                0.09 per second
c decisions:                                0                0.00 per conflict
c propagations:                       1359103           119822    per second
c
c ---- [ resources ] ---------------------------------------------------------
c
c maximum-resident-set-size:       1932419072 bytes       1843 MB
c process-time:                            11s              11.34 seconds
c
c ---- [ shutting down ] -----------------------------------------------------
c
c exit 20
*** qbfcert: VALID
c array.sh: end:      Thu Feb 18 09:53:43 CET 2021
